p cnf 71 261
4 -2 0
4 3 0
2 -3 -4 0
-5 1 0
-5 4 0
-1 -4 5 0
-5 -6 -7 0
5 6 -7 0
-5 6 7 0
5 -6 7 0
8 9 0
-8 9 0
7 9 -10 0
-7 -9 -10 0
7 -9 10 0
-7 9 10 0
-6 11 -12 0
6 -11 -12 0
-6 -11 12 0
6 11 12 0
-13 -1 -14 0
13 1 -14 0
-13 1 14 0
13 -1 14 0
-1 -14 -15 0
1 14 -15 0
-1 14 15 0
1 -14 15 0
17 15 0
17 -16 0
-15 16 -17 0
-7 6 -18 0
7 -6 -18 0
-7 -6 18 0
7 6 18 0
-19 17 0
-19 18 0
-17 -18 19 0
20 7 0
20 -19 0
-7 19 -20 0
20 7 -21 0
-20 -7 -21 0
20 -7 21 0
-20 7 21 0
-22 -12 0
-22 -21 0
12 21 22 0
10 22 -23 0
-10 -22 -23 0
10 -22 23 0
-10 22 23 0
25 24 0
25 -6 0
-24 6 -25 0
23 -25 -26 0
-23 25 -26 0
23 25 26 0
-23 -25 26 0
-1 6 -27 0
1 -6 -27 0
-1 -6 27 0
1 6 27 0
28 27 0
28 -4 0
-27 4 -28 0
26 28 -29 0
-26 -28 -29 0
26 -28 29 0
-26 28 29 0
30 -14 0
30 -9 0
14 9 -30 0
31 -3 0
31 -15 0
3 15 -31 0
32 30 0
32 -31 0
-30 31 -32 0
33 29 0
33 32 0
-29 -32 -33 0
11 -3 -34 0
-11 3 -34 0
11 3 34 0
-11 -3 34 0
-35 34 0
-35 -6 0
-34 6 35 0
18 35 -36 0
-18 -35 -36 0
18 -35 36 0
-18 35 36 0
-37 34 0
-37 -36 0
-34 36 37 0
1 6 -38 0
-1 -6 -38 0
1 -6 38 0
-1 6 38 0
-39 38 0
-39 -6 0
-38 6 39 0
-40 -1 0
-40 -39 0
1 39 40 0
-41 40 0
-41 -4 0
-40 4 41 0
-43 3 0
-43 -42 0
-3 42 43 0
44 -5 0
44 43 0
5 -43 -44 0
45 41 0
45 44 0
-41 -44 -45 0
-46 -9 0
-46 -43 0
9 43 46 0
47 38 0
47 46 0
-38 -46 -47 0
-48 -45 0
-48 -47 0
45 47 48 0
49 37 0
49 -48 0
-37 48 -49 0
33 -49 -50 0
-33 49 -50 0
33 49 50 0
-33 -49 50 0
51 16 0
51 4 0
-16 -4 -51 0
50 -51 -52 0
-50 51 -52 0
50 51 52 0
-50 -51 52 0
53 -14 0
53 18 0
14 -18 -53 0
-54 18 0
-54 -2 0
-18 2 54 0
55 53 0
55 -54 0
-53 54 -55 0
-56 52 0
-56 -55 0
-52 55 56 0
57 13 0
57 -46 0
-13 46 -57 0
54 58 0
-54 58 0
-53 -59 0
53 -59 0
-60 39 0
-60 59 0
-39 -59 60 0
61 -58 0
61 -60 0
58 60 -61 0
62 16 0
62 -8 0
-16 8 -62 0
-62 11 -63 0
62 -11 -63 0
-62 -11 63 0
62 11 63 0
64 -61 0
64 63 0
61 -63 -64 0
65 35 0
65 -16 0
-35 16 -65 0
18 65 -66 0
-18 -65 -66 0
18 -65 66 0
-18 65 66 0
54 66 -67 0
-54 -66 -67 0
54 -66 67 0
-54 66 67 0
-67 -42 -68 0
67 42 -68 0
-67 42 68 0
67 -42 68 0
69 64 0
69 -68 0
-64 68 -69 0
-70 57 0
-70 -69 0
-57 69 70 0
71 -56 0
71 -70 0
56 70 -71 0
-17 61 -30 0
-63 -50 0
32 -20 0
38 -10 43 -63 -24 61 0
-2 -44 -20 53 -68 0
-42 11 -47 28 -34 0
-70 -49 -34 -9 -1 0
36 8 -9 68 0
-40 24 -68 -28 0
46 51 13 0
-55 -2 0
25 -6 53 -8 23 0
33 -47 5 0
-37 -71 29 22 -50 0
49 -35 -65 -7 13 0
10 53 0
50 -59 -14 0
-69 -45 -50 60 0
66 18 0
-24 6 0
-32 16 -12 23 27 -8 0
63 -43 60 -64 0
-29 -38 68 0
-60 70 -2 0
31 22 60 -52 -63 -69 0
-10 -28 4 19 0
6 -2 0
67 -48 0
-3 12 -24 34 19 18 0
19 47 -17 0
26 29 36 56 18 0
48 47 -69 2 68 0
-19 -39 -17 0
22 -6 -58 32 64 -48 0
38 -40 0
-19 -13 -20 -61 0
15 -44 -11 60 -17 0
15 12 -60 -44 32 0
-7 -11 18 62 0
60 32 0
-56 49 0
40 57 -52 5 -53 46 0
-51 56 5 12 31 0
-63 70 -40 13 0
-35 -30 0
19 -70 -65 47 0
68 -35 -42 61 39 0
-51 -38 54 -52 0
55 64 16 9 -69 -32 0
9 13 0
56 4 0
26 -69 -57 53 -71 0
20 44 -27 57 -26 -25 0
-48 -38 0
-67 17 -46 48 0
-67 7 -4 0
-3 -21 26 25 67 63 0
-59 -24 -20 -58 26 -66 0
2 -61 21 5 -27 0
57 -59 -30 44 65 0
71 0
